c "968281.clq"
p edge 80 304
e 1 5
e 2 5
e 2 6
e 2 7
e 2 11
e 2 19
e 2 78
e 3 5
e 3 6
e 3 7
e 3 8
e 3 9
e 3 10
e 3 13
e 3 14
e 3 16
e 3 17
e 3 20
e 3 22
e 3 28
e 3 29
e 3 33
e 3 37
e 3 39
e 3 45
e 3 47
e 3 53
e 3 57
e 3 62
e 3 64
e 3 66
e 3 69
e 3 75
e 3 78
e 4 5
e 4 6
e 4 8
e 4 9
e 4 11
e 4 13
e 4 28
e 4 35
e 4 38
e 4 39
e 4 56
e 5 6
e 5 7
e 5 8
e 5 9
e 5 10
e 5 12
e 5 13
e 5 15
e 5 17
e 5 20
e 5 21
e 5 22
e 5 24
e 5 30
e 5 32
e 5 33
e 5 34
e 5 36
e 5 38
e 5 40
e 5 48
e 5 58
e 5 68
e 5 74
e 5 76
e 5 77
e 5 79
e 6 7
e 6 16
e 6 20
e 6 21
e 6 26
e 6 33
e 6 36
e 6 43
e 6 46
e 6 49
e 6 65
e 6 67
e 6 71
e 6 72
e 6 80
e 7 8
e 7 10
e 7 11
e 7 12
e 7 15
e 7 16
e 7 19
e 7 25
e 7 28
e 7 31
e 7 32
e 7 38
e 7 47
e 7 48
e 7 60
e 7 79
e 8 9
e 8 10
e 8 12
e 8 13
e 8 14
e 8 17
e 8 18
e 8 21
e 8 26
e 8 27
e 8 30
e 8 31
e 8 37
e 8 43
e 8 45
e 8 49
e 8 51
e 8 53
e 8 55
e 8 62
e 8 63
e 8 64
e 8 71
e 8 75
e 8 77
e 9 14
e 9 18
e 9 24
e 9 27
e 9 34
e 9 42
e 9 46
e 9 51
e 9 57
e 9 58
e 10 11
e 10 18
e 10 20
e 10 21
e 10 26
e 10 45
e 10 56
e 10 75
e 10 78
e 11 12
e 11 15
e 11 18
e 11 27
e 11 28
e 11 29
e 11 34
e 11 36
e 11 46
e 11 47
e 11 50
e 11 54
e 11 56
e 11 68
e 11 70
e 11 74
e 11 77
e 11 78
e 11 80
e 12 15
e 12 16
e 12 17
e 12 23
e 12 25
e 12 30
e 12 33
e 12 35
e 12 38
e 12 39
e 12 51
e 12 53
e 12 54
e 12 60
e 13 14
e 13 22
e 13 25
e 13 30
e 13 43
e 13 52
e 13 61
e 13 74
e 14 22
e 14 68
e 15 19
e 15 48
e 15 65
e 16 26
e 17 19
e 17 23
e 17 34
e 17 58
e 17 73
e 18 32
e 18 35
e 18 41
e 18 52
e 18 54
e 18 67
e 18 70
e 19 24
e 19 27
e 19 35
e 19 57
e 19 59
e 19 61
e 19 63
e 19 70
e 19 72
e 20 24
e 20 39
e 20 40
e 20 66
e 20 67
e 21 23
e 21 55
e 22 23
e 22 32
e 22 41
e 23 25
e 23 42
e 23 49
e 23 64
e 24 29
e 24 31
e 25 44
e 25 46
e 26 29
e 26 49
e 26 61
e 27 37
e 27 51
e 27 63
e 28 31
e 29 62
e 30 52
e 30 75
e 31 40
e 31 42
e 31 44
e 31 50
e 31 57
e 31 59
e 31 70
e 32 37
e 32 40
e 32 59
e 32 68
e 32 71
e 33 62
e 34 41
e 34 65
e 34 72
e 34 80
e 35 36
e 35 41
e 35 47
e 35 52
e 35 53
e 35 58
e 37 42
e 37 44
e 37 48
e 38 66
e 38 69
e 38 76
e 39 44
e 40 71
e 41 43
e 41 65
e 41 76
e 42 61
e 44 45
e 44 67
e 45 50
e 45 56
e 45 69
e 45 76
e 46 50
e 48 73
e 48 80
e 50 54
e 50 55
e 50 63
e 52 60
e 53 55
e 53 77
e 54 73
e 57 59
e 57 60
e 57 69
e 61 66
e 62 79
e 63 64
e 65 72
e 65 79
e 70 74
e 72 73
